NAME : LIN105B.17482.tour
COMMENT : Cost = 0_17482
COMMENT : Found by LKH [Keld Helsgaun] Sun Sep 17 16:52:42 2017
TYPE : TOUR
DIMENSION : 105
TOUR_SECTION
1
2
3
16
19
24
27
33
28
23
20
103
15
21
22
29
30
31
32
48
50
55
56
62
63
70
69
74
75
81
90
94
100
95
88
87
66
65
61
60
39
38
34
35
42
41
43
46
52
53
58
44
47
51
54
57
105
64
73
76
80
72
68
71
78
82
84
83
85
91
92
96
97
101
102
93
98
99
89
86
79
77
67
59
49
45
40
104
36
37
26
25
18
17
14
13
4
5
9
8
12
11
10
7
6
-1
EOF
